SECTION Graph
Nodes 574
Edges 1165
E 1 501 7
E 1 502 2
E 2 3 14
E 2 503 2
E 3 4 1
E 3 504 2
E 4 505 2
E 5 6 1
E 6 7 14
E 7 8 1
E 8 302 8
E 8 311 31
E 9 10 1
E 9 493 7
E 9 494 2
E 9 502 21
E 10 11 14
E 10 495 2
E 10 503 21
E 11 12 1
E 11 498 2
E 11 504 21
E 12 499 2
E 12 505 21
E 13 14 1
E 13 481 7
E 13 483 2
E 13 494 21
E 14 15 14
E 14 485 2
E 14 495 21
E 15 16 1
E 15 489 2
E 15 498 21
E 16 491 2
E 16 499 21
E 17 18 1
E 17 473 7
E 17 474 2
E 17 483 21
E 18 19 14
E 18 475 2
E 18 485 21
E 19 20 1
E 19 478 2
E 19 489 21
E 20 479 2
E 20 491 21
E 21 22 1
E 21 465 7
E 21 466 2
E 21 474 21
E 22 23 14
E 22 467 2
E 22 475 21
E 23 24 1
E 23 470 2
E 23 478 21
E 24 471 2
E 24 479 21
E 25 26 1
E 25 457 7
E 25 458 2
E 25 466 21
E 26 27 14
E 26 459 2
E 26 467 21
E 27 28 1
E 27 462 2
E 27 470 21
E 28 463 2
E 28 471 21
E 29 30 1
E 29 449 7
E 29 458 21
E 30 31 14
E 30 459 21
E 31 32 1
E 31 462 21
E 32 463 21
E 33 34 1
E 33 68 7
E 33 496 21
E 34 35 14
E 34 497 21
E 35 36 1
E 35 500 21
E 36 501 21
E 37 38 1
E 37 72 7
E 37 486 21
E 37 496 2
E 38 39 14
E 38 487 21
E 38 497 2
E 39 40 1
E 39 492 21
E 39 500 2
E 40 493 21
E 40 501 2
E 40 502 7
E 41 42 1
E 41 76 7
E 41 476 21
E 41 486 2
E 42 43 14
E 42 477 21
E 42 487 2
E 43 44 1
E 43 480 21
E 43 492 2
E 44 481 21
E 44 493 2
E 44 494 7
E 45 46 1
E 45 80 7
E 45 468 21
E 45 476 2
E 46 47 14
E 46 469 21
E 46 477 2
E 47 48 1
E 47 472 21
E 47 480 2
E 48 473 21
E 48 481 2
E 48 483 7
E 49 50 1
E 49 84 7
E 49 460 21
E 49 468 2
E 50 51 14
E 50 461 21
E 50 469 2
E 51 52 1
E 51 464 21
E 51 472 2
E 52 465 21
E 52 473 2
E 52 474 7
E 53 54 1
E 53 88 7
E 53 451 21
E 53 460 2
E 54 55 14
E 54 453 21
E 54 461 2
E 55 56 1
E 55 455 21
E 55 464 2
E 56 457 21
E 56 465 2
E 56 466 7
E 57 58 1
E 57 92 7
E 57 439 21
E 57 451 2
E 58 59 14
E 58 441 21
E 58 453 2
E 59 60 1
E 59 447 21
E 59 455 2
E 60 449 21
E 60 457 2
E 60 458 7
E 61 62 1
E 61 96 7
E 61 439 2
E 62 63 14
E 62 441 2
E 63 64 1
E 63 447 2
E 64 449 2
E 65 66 1
E 65 69 23
E 65 490 7
E 66 67 14
E 66 70 23
E 67 68 1
E 67 71 23
E 68 72 23
E 69 70 1
E 69 73 23
E 69 100 7
E 70 71 14
E 70 74 23
E 71 72 1
E 71 75 23
E 72 76 23
E 73 74 1
E 73 77 23
E 73 104 7
E 74 75 14
E 74 78 23
E 75 76 1
E 75 79 23
E 76 80 23
E 77 78 1
E 77 81 23
E 77 108 7
E 78 79 14
E 78 82 23
E 79 80 1
E 79 83 23
E 80 84 23
E 81 82 1
E 81 112 7
E 81 450 21
E 82 83 14
E 82 452 21
E 83 84 1
E 83 454 21
E 84 456 21
E 85 86 1
E 85 89 23
E 85 116 7
E 85 450 2
E 86 87 14
E 86 90 23
E 86 452 2
E 87 88 1
E 87 91 23
E 87 454 2
E 88 92 23
E 88 456 2
E 89 90 1
E 89 120 7
E 89 425 21
E 90 91 14
E 90 427 21
E 91 92 1
E 91 431 21
E 92 433 21
E 93 94 1
E 93 124 7
E 93 425 2
E 94 95 14
E 94 427 2
E 95 96 1
E 95 431 2
E 96 433 2
E 97 98 1
E 97 101 23
E 97 148 7
E 97 482 23
E 98 99 14
E 98 102 23
E 98 484 23
E 99 100 1
E 99 103 23
E 99 488 23
E 100 104 23
E 100 490 23
E 101 102 1
E 101 105 23
E 101 152 7
E 102 103 14
E 102 106 23
E 103 104 1
E 103 107 23
E 104 108 23
E 105 106 1
E 105 109 23
E 105 156 7
E 106 107 14
E 106 110 23
E 107 108 1
E 107 111 23
E 108 112 23
E 109 110 1
E 109 160 7
E 109 438 21
E 110 111 14
E 110 440 21
E 111 112 1
E 111 446 21
E 112 448 21
E 113 114 1
E 113 117 23
E 113 164 7
E 113 438 2
E 114 115 14
E 114 118 23
E 114 440 2
E 115 116 1
E 115 119 23
E 115 446 2
E 116 120 23
E 116 448 2
E 117 118 1
E 117 168 7
E 117 415 21
E 118 119 14
E 118 416 21
E 119 120 1
E 119 421 21
E 120 422 21
E 121 122 1
E 121 172 7
E 121 415 2
E 122 123 14
E 122 416 2
E 123 124 1
E 123 421 2
E 124 422 2
E 125 126 1
E 125 129 67
E 125 348 108
E 126 127 14
E 126 130 67
E 127 128 1
E 127 131 67
E 128 132 67
E 129 130 1
E 129 133 23
E 130 131 14
E 130 134 23
E 131 132 1
E 131 135 23
E 132 136 23
E 133 134 1
E 133 137 21
E 134 135 14
E 134 138 21
E 135 136 1
E 135 139 21
E 136 140 21
E 137 138 1
E 138 139 14
E 139 140 1
E 141 142 1
E 141 145 23
E 141 178 7
E 142 143 14
E 142 146 23
E 143 144 1
E 143 147 23
E 144 148 23
E 144 482 7
E 145 146 1
E 145 149 23
E 145 182 7
E 146 147 14
E 146 150 23
E 147 148 1
E 147 151 23
E 148 152 23
E 149 150 1
E 149 153 23
E 149 186 7
E 150 151 14
E 150 154 23
E 151 152 1
E 151 155 23
E 152 156 23
E 153 154 1
E 153 157 23
E 153 445 7
E 154 155 14
E 154 158 23
E 155 156 1
E 155 159 23
E 156 160 23
E 157 158 1
E 157 434 2
E 158 159 14
E 158 435 2
E 159 160 1
E 159 442 2
E 160 443 2
E 161 162 1
E 161 165 23
E 161 420 7
E 161 434 21
E 162 163 14
E 162 166 23
E 162 426 2
E 163 164 1
E 163 167 23
E 163 430 2
E 164 168 23
E 164 432 2
E 165 166 1
E 165 411 4
E 166 167 14
E 166 412 4
E 167 168 1
E 167 417 4
E 168 418 4
E 169 170 1
E 169 402 7
E 169 403 4
E 169 405 2
E 170 404 4
E 170 406 2
E 170 408 8
E 171 172 1
E 171 408 6
E 171 409 2
E 172 410 2
E 173 174 18
E 173 348 82
E 173 364 8
E 174 374 8
E 174 407 190
E 175 176 1
E 175 179 23
E 176 177 14
E 176 180 23
E 177 178 1
E 177 181 23
E 178 182 23
E 179 180 1
E 179 183 23
E 180 181 14
E 180 184 23
E 181 182 1
E 181 185 23
E 182 186 23
E 183 184 1
E 183 436 23
E 184 185 14
E 184 437 23
E 185 186 1
E 185 444 23
E 186 445 23
E 187 188 1
E 187 398 22
E 187 399 19
E 187 413 27
E 188 189 14
E 188 400 19
E 188 414 27
E 189 190 1
E 189 401 19
E 189 419 27
E 190 402 19
E 190 411 7
E 190 420 27
E 191 192 1
E 191 393 35
E 191 399 4
E 192 193 14
E 192 394 35
E 192 400 4
E 193 194 1
E 193 395 35
E 193 401 4
E 194 396 35
E 194 402 4
E 194 403 7
E 195 196 1
E 195 351 82
E 196 197 14
E 196 352 82
E 197 198 1
E 197 359 82
E 198 348 16
E 198 360 82
E 199 200 1
E 199 397 48
E 200 201 14
E 200 398 48
E 201 202 1
E 202 423 7
E 203 204 1
E 203 368 76
E 203 384 9
E 204 205 14
E 205 206 1
E 205 379 48
E 206 380 48
E 206 393 53
E 206 397 88
E 207 208 1
E 207 366 7
E 207 369 2
E 207 381 46
E 208 209 14
E 208 370 2
E 208 382 46
E 209 210 1
E 209 375 2
E 209 383 46
E 210 377 2
E 210 379 22
E 210 384 46
E 211 212 1
E 211 346 82
E 211 369 23
E 212 213 14
E 212 347 82
E 212 370 23
E 213 214 1
E 213 375 23
E 214 376 22
E 214 377 23
E 215 216 1
E 215 355 2
E 216 217 14
E 216 356 2
E 217 218 1
E 217 365 2
E 218 366 2
E 218 369 7
E 219 220 1
E 219 343 191
E 219 349 20
E 219 357 2
E 220 221 14
E 220 350 20
E 220 358 2
E 221 222 1
E 221 353 20
E 221 367 2
E 222 354 20
E 222 368 2
E 222 381 53
E 223 224 1
E 223 298 7
E 223 300 130
E 224 225 14
E 224 301 130
E 225 226 1
E 225 295 25
E 225 304 130
E 226 296 25
E 226 305 130
E 227 228 1
E 227 238 24
E 228 229 14
E 229 230 1
E 229 290 17
E 230 292 17
E 231 232 1
E 231 278 30
E 231 287 2
E 231 293 25
E 232 233 14
E 232 288 2
E 232 294 25
E 233 234 1
E 233 289 2
E 233 297 25
E 234 291 2
E 234 295 22
E 234 298 25
E 235 236 1
E 235 287 23
E 236 237 14
E 236 288 23
E 237 238 1
E 237 289 23
E 238 290 22
E 238 291 23
E 239 240 1
E 239 331 7
E 239 340 20
E 240 241 14
E 240 341 20
E 241 242 1
E 241 342 20
E 242 343 20
E 242 349 191
E 243 244 1
E 243 334 1
E 244 245 14
E 244 335 1
E 245 246 1
E 245 338 1
E 246 339 1
E 247 248 1
E 247 313 22
E 247 314 1
E 247 324 24
E 248 249 14
E 248 315 1
E 248 326 24
E 249 250 1
E 249 253 71
E 249 328 24
E 250 254 71
E 250 330 24
E 251 252 1
E 251 255 32
E 251 299 22
E 251 314 70
E 252 253 14
E 252 256 32
E 252 315 70
E 253 254 1
E 253 257 32
E 254 258 32
E 255 256 1
E 255 281 153
E 256 257 14
E 256 282 153
E 257 258 1
E 257 285 153
E 258 286 153
E 258 306 58
E 259 260 1
E 259 275 2
E 260 261 14
E 260 276 2
E 261 262 1
E 261 277 2
E 262 278 2
E 262 287 30
E 263 264 1
E 263 317 22
E 264 265 14
E 264 319 22
E 265 266 1
E 265 321 22
E 266 323 22
E 266 334 7
E 267 268 1
E 268 269 14
E 268 299 191
E 269 270 1
E 270 279 7
E 271 272 1
E 271 302 24
E 272 273 14
E 272 303 24
E 273 274 1
E 273 308 24
E 274 309 24
E 274 316 7
E 275 276 1
E 275 279 19
E 276 277 14
E 276 280 19
E 277 278 1
E 277 283 19
E 278 284 19
E 279 280 1
E 279 281 6
E 280 282 6
E 280 283 14
E 281 282 1
E 282 285 14
E 283 284 1
E 283 285 6
E 284 286 6
E 285 286 1
E 286 293 30
E 287 288 1
E 288 289 14
E 289 291 1
E 290 292 1
E 290 295 25
E 292 296 25
E 293 294 1
E 294 297 14
E 295 296 1
E 297 298 1
E 299 311 70
E 300 301 1
E 300 306 18
E 301 304 14
E 301 307 18
E 302 303 1
E 303 308 14
E 304 305 1
E 304 310 18
E 305 312 18
E 305 344 214
E 306 307 1
E 307 310 14
E 308 309 1
E 309 313 8
E 310 312 1
E 311 313 1
E 311 314 22
E 312 346 214
E 313 318 24
E 314 315 1
E 316 317 1
E 316 318 1
E 317 319 1
E 318 319 1
E 318 320 14
E 319 321 14
E 320 321 1
E 320 322 1
E 321 323 1
E 322 323 1
E 322 324 7
E 323 325 7
E 324 325 1
E 324 326 1
E 325 327 1
E 325 332 20
E 326 327 1
E 326 328 14
E 327 329 14
E 327 333 20
E 328 329 1
E 328 330 1
E 329 331 1
E 329 336 20
E 330 331 1
E 331 337 20
E 332 333 1
E 332 334 2
E 333 335 2
E 333 336 14
E 334 335 1
E 335 338 14
E 336 337 1
E 336 338 2
E 337 339 2
E 337 340 7
E 338 339 1
E 339 357 214
E 340 341 1
E 341 342 14
E 342 343 1
E 344 345 1
E 344 346 18
E 345 347 18
E 345 351 91
E 346 347 1
E 347 361 91
E 349 350 1
E 350 353 14
E 351 352 1
E 351 361 18
E 352 359 14
E 352 362 18
E 353 354 1
E 354 355 56
E 355 356 1
E 356 365 14
E 357 358 1
E 358 367 14
E 359 360 1
E 359 371 18
E 360 363 7
E 360 372 18
E 361 362 1
E 361 385 82
E 362 371 14
E 362 386 82
E 363 364 1
E 363 373 18
E 364 374 18
E 365 366 1
E 367 368 1
E 369 370 1
E 370 375 14
E 371 372 1
E 371 387 82
E 372 373 7
E 372 388 82
E 373 374 1
E 373 403 190
E 374 404 190
E 375 377 1
E 376 378 1
E 376 379 25
E 378 380 25
E 378 385 53
E 379 380 1
E 380 389 53
E 381 382 1
E 382 383 14
E 383 384 1
E 385 386 1
E 385 389 25
E 386 387 14
E 386 390 25
E 387 388 1
E 387 391 25
E 388 392 25
E 389 390 1
E 389 393 48
E 390 391 14
E 390 394 48
E 391 392 1
E 391 395 48
E 392 396 48
E 393 394 1
E 394 395 14
E 395 396 1
E 397 398 1
E 399 400 1
E 400 401 14
E 401 402 1
E 403 404 1
E 404 407 8
E 405 406 1
E 405 411 17
E 406 409 14
E 406 412 17
E 407 408 4
E 409 410 1
E 409 417 17
E 410 415 7
E 410 418 17
E 411 412 1
E 412 417 14
E 413 414 1
E 413 423 21
E 414 419 14
E 414 424 21
E 415 416 1
E 416 421 14
E 417 418 1
E 419 420 1
E 419 428 21
E 420 429 21
E 421 422 1
E 422 425 7
E 423 424 1
E 423 436 25
E 424 428 14
E 424 437 25
E 425 427 1
E 426 430 14
E 426 435 19
E 427 431 14
E 428 429 1
E 428 444 25
E 429 434 7
E 429 445 25
E 430 432 1
E 430 442 19
E 431 433 1
E 432 438 7
E 432 443 19
E 433 439 7
E 434 435 1
E 435 442 14
E 436 437 1
E 437 444 14
E 438 440 1
E 439 441 1
E 440 446 14
E 441 447 14
E 442 443 1
E 444 445 1
E 446 448 1
E 447 449 1
E 448 450 7
E 450 452 1
E 451 453 1
E 452 454 14
E 453 455 14
E 454 456 1
E 455 457 1
E 456 460 7
E 458 459 1
E 459 462 14
E 460 461 1
E 461 464 14
E 462 463 1
E 464 465 1
E 466 467 1
E 467 470 14
E 468 469 1
E 469 472 14
E 470 471 1
E 472 473 1
E 474 475 1
E 475 478 14
E 476 477 1
E 477 480 14
E 478 479 1
E 480 481 1
E 482 484 1
E 483 485 1
E 484 488 14
E 485 489 14
E 486 487 1
E 487 492 14
E 488 490 1
E 489 491 1
E 492 493 1
E 494 495 1
E 495 498 14
E 496 497 1
E 497 500 14
E 498 499 1
E 500 501 1
E 502 503 1
E 503 504 14
E 504 505 1
E 1 506 100000
E 2 506 100000
E 3 506 100000
E 4 506 100000
E 5 507 100000
E 6 507 100000
E 7 507 100000
E 8 507 100000
E 9 508 100000
E 10 508 100000
E 11 508 100000
E 12 508 100000
E 13 509 100000
E 14 509 100000
E 15 509 100000
E 16 509 100000
E 17 510 100000
E 18 510 100000
E 19 510 100000
E 20 510 100000
E 21 511 100000
E 22 511 100000
E 23 511 100000
E 24 511 100000
E 25 512 100000
E 26 512 100000
E 27 512 100000
E 28 512 100000
E 29 513 100000
E 30 513 100000
E 31 513 100000
E 32 513 100000
E 33 514 100000
E 34 514 100000
E 35 514 100000
E 36 514 100000
E 37 515 100000
E 38 515 100000
E 39 515 100000
E 40 515 100000
E 41 516 100000
E 42 516 100000
E 43 516 100000
E 44 516 100000
E 45 517 100000
E 46 517 100000
E 47 517 100000
E 48 517 100000
E 49 518 100000
E 50 518 100000
E 51 518 100000
E 52 518 100000
E 53 519 100000
E 54 519 100000
E 55 519 100000
E 56 519 100000
E 57 520 100000
E 58 520 100000
E 59 520 100000
E 60 520 100000
E 61 521 100000
E 62 521 100000
E 63 521 100000
E 64 521 100000
E 65 522 100000
E 66 522 100000
E 67 522 100000
E 68 522 100000
E 69 523 100000
E 70 523 100000
E 71 523 100000
E 72 523 100000
E 73 524 100000
E 74 524 100000
E 75 524 100000
E 76 524 100000
E 77 525 100000
E 78 525 100000
E 79 525 100000
E 80 525 100000
E 81 526 100000
E 82 526 100000
E 83 526 100000
E 84 526 100000
E 85 527 100000
E 86 527 100000
E 87 527 100000
E 88 527 100000
E 89 528 100000
E 90 528 100000
E 91 528 100000
E 92 528 100000
E 93 529 100000
E 94 529 100000
E 95 529 100000
E 96 529 100000
E 97 530 100000
E 98 530 100000
E 99 530 100000
E 100 530 100000
E 101 531 100000
E 102 531 100000
E 103 531 100000
E 104 531 100000
E 105 532 100000
E 106 532 100000
E 107 532 100000
E 108 532 100000
E 109 533 100000
E 110 533 100000
E 111 533 100000
E 112 533 100000
E 113 534 100000
E 114 534 100000
E 115 534 100000
E 116 534 100000
E 117 535 100000
E 118 535 100000
E 119 535 100000
E 120 535 100000
E 121 536 100000
E 122 536 100000
E 123 536 100000
E 124 536 100000
E 125 537 100000
E 126 537 100000
E 127 537 100000
E 128 537 100000
E 129 538 100000
E 130 538 100000
E 131 538 100000
E 132 538 100000
E 133 539 100000
E 134 539 100000
E 135 539 100000
E 136 539 100000
E 137 540 100000
E 138 540 100000
E 139 540 100000
E 140 540 100000
E 141 541 100000
E 142 541 100000
E 143 541 100000
E 144 541 100000
E 145 542 100000
E 146 542 100000
E 147 542 100000
E 148 542 100000
E 149 543 100000
E 150 543 100000
E 151 543 100000
E 152 543 100000
E 153 544 100000
E 154 544 100000
E 155 544 100000
E 156 544 100000
E 157 545 100000
E 158 545 100000
E 159 545 100000
E 160 545 100000
E 161 546 100000
E 162 546 100000
E 163 546 100000
E 164 546 100000
E 165 547 100000
E 166 547 100000
E 167 547 100000
E 168 547 100000
E 169 548 100000
E 170 548 100000
E 171 548 100000
E 172 548 100000
E 173 549 100000
E 174 549 100000
E 175 550 100000
E 176 550 100000
E 177 550 100000
E 178 550 100000
E 179 551 100000
E 180 551 100000
E 181 551 100000
E 182 551 100000
E 183 552 100000
E 184 552 100000
E 185 552 100000
E 186 552 100000
E 187 553 100000
E 188 553 100000
E 189 553 100000
E 190 553 100000
E 191 554 100000
E 192 554 100000
E 193 554 100000
E 194 554 100000
E 195 555 100000
E 196 555 100000
E 197 555 100000
E 198 555 100000
E 199 556 100000
E 200 556 100000
E 201 556 100000
E 202 556 100000
E 203 557 100000
E 204 557 100000
E 205 557 100000
E 206 557 100000
E 207 558 100000
E 208 558 100000
E 209 558 100000
E 210 558 100000
E 211 559 100000
E 212 559 100000
E 213 559 100000
E 214 559 100000
E 215 560 100000
E 216 560 100000
E 217 560 100000
E 218 560 100000
E 219 561 100000
E 220 561 100000
E 221 561 100000
E 222 561 100000
E 223 562 100000
E 224 562 100000
E 225 562 100000
E 226 562 100000
E 227 563 100000
E 228 563 100000
E 229 563 100000
E 230 563 100000
E 231 564 100000
E 232 564 100000
E 233 564 100000
E 234 564 100000
E 235 565 100000
E 236 565 100000
E 237 565 100000
E 238 565 100000
E 239 566 100000
E 240 566 100000
E 241 566 100000
E 242 566 100000
E 243 567 100000
E 244 567 100000
E 245 567 100000
E 246 567 100000
E 247 568 100000
E 248 568 100000
E 249 568 100000
E 250 568 100000
E 251 569 100000
E 252 569 100000
E 253 569 100000
E 254 569 100000
E 255 570 100000
E 256 570 100000
E 257 570 100000
E 258 570 100000
E 259 571 100000
E 260 571 100000
E 261 571 100000
E 262 571 100000
E 263 572 100000
E 264 572 100000
E 265 572 100000
E 266 572 100000
E 267 573 100000
E 268 573 100000
E 269 573 100000
E 270 573 100000
E 271 574 100000
E 272 574 100000
E 273 574 100000
E 274 574 100000
END

SECTION Terminals
Terminals 69
T 506
T 507
T 508
T 509
T 510
T 511
T 512
T 513
T 514
T 515
T 516
T 517
T 518
T 519
T 520
T 521
T 522
T 523
T 524
T 525
T 526
T 527
T 528
T 529
T 530
T 531
T 532
T 533
T 534
T 535
T 536
T 537
T 538
T 539
T 540
T 541
T 542
T 543
T 544
T 545
T 546
T 547
T 548
T 549
T 550
T 551
T 552
T 553
T 554
T 555
T 556
T 557
T 558
T 559
T 560
T 561
T 562
T 563
T 564
T 565
T 566
T 567
T 568
T 569
T 570
T 571
T 572
T 573
T 574
END

SECTION Tree Decomposition
c We do not guarantee that this tree decomposition has minimum width.
s td 483 21 574
b 1 5 6 507
b 2 549 173 174
b 3 6 7 507
b 4 267 573 268
b 5 7 507 8
b 6 8 302 311
b 7 573 269 268 270
b 8 268 270 299
b 9 270 299 279
b 10 204 557 205 203
b 11 228 563 227 229
b 12 557 205 203 206
b 13 201 556 200 202
b 14 563 227 229 230
b 15 556 199 200 202
b 16 128 127 537 132
b 17 137 540 138 133
b 18 32 31 513 463
b 19 36 514 35 501
b 20 140 139 540 136
b 21 195 196 555 351
b 22 199 200 397 202
b 23 200 397 398 202
b 24 175 176 550 179
b 25 397 398 202 206
b 26 398 202 187 206
b 27 202 187 206 423
b 28 205 379 203 206
b 29 4 3 505 506
b 30 215 216 560 355
b 31 227 229 230 238
b 32 229 230 290 238
b 33 230 290 292 238
b 34 235 236 565 287
b 35 243 567 244 334
b 36 64 521 63 449
b 37 246 567 245 339
b 38 259 571 260 275
b 39 263 264 572 317
b 40 271 272 574 302
b 41 2 3 506 503
b 42 290 292 295 238
b 43 292 296 295 238
b 44 296 295 226 238
b 45 3 505 504 506 503
b 46 343 342 242 219
b 47 344 345 305 346
b 48 348 125 173 198
b 49 349 242 219 350
b 50 353 221 350 354
b 51 356 216 365 355
b 52 216 217 560 365 355
b 53 217 560 365 355 218
b 54 365 355 366 218
b 55 355 366 218 354
b 56 366 218 207 354
b 57 218 369 207 354
b 58 363 364 373 360
b 59 367 368 221 358
b 60 376 378 379 214
b 61 377 375 210 214
b 62 381 382 207 222
b 63 383 384 209 382
b 64 388 392 387 372
b 65 1 506 502 501
b 66 396 392 395 194
b 67 399 400 187 191
b 68 405 406 411 169
b 69 407 408 174 404
b 70 413 414 187 423
b 71 418 417 168 410
b 72 426 162 430 435
b 73 436 183 437 423
b 74 443 442 432 160
b 75 451 453 57 53
b 76 468 45 469 49
b 77 471 28 24 470
b 78 476 477 45 41
b 79 479 20 478 24
b 80 482 484 97 144
b 81 486 487 37 41
b 82 488 490 99 484
b 83 491 20 16 489
b 84 496 497 33 37
b 85 499 12 498 16
b 86 357 358 219 339
b 87 291 289 234 238
b 88 281 255 279 282
b 89 293 294 231 286
b 90 284 283 278 286
b 91 297 298 233 294
b 92 299 311 251 279
b 93 300 306 301 223
b 94 303 272 308 302
b 95 272 273 574 308 302
b 96 273 574 308 302 274
b 97 308 302 309 274
b 98 302 309 274 311
b 99 309 274 313 311
b 100 274 313 316 311
b 101 307 306 301 310
b 102 312 310 305 346
b 103 315 314 248 252
b 104 320 322 321 318
b 105 330 328 250 331
b 106 332 333 334 325
b 107 340 341 239 337
b 108 546 163 162 164 161
b 109 527 86 88 85 87
b 110 528 91 89 90 92
b 111 523 70 72 71 69
b 112 525 78 77 79 80
b 113 524 75 76 73 74
b 114 515 38 39 40 37
b 115 521 63 62 61 449
b 116 63 62 447 61 449
b 117 62 447 441 61 449
b 118 511 23 22 24 21
b 119 512 27 26 28 25
b 120 127 537 126 131 132
b 121 537 126 131 132 125
b 122 126 130 131 132 125
b 123 505 504 506 503 12
b 124 504 506 503 11 12
b 125 447 441 61 59 449
b 126 568 249 247 248 250
b 127 31 513 30 463 462
b 128 513 30 463 462 29
b 129 30 463 462 459 29
b 130 508 11 10 12 9
b 131 463 462 459 29 28
b 132 462 459 29 27 28
b 133 510 19 20 17 18
b 134 514 34 35 33 501
b 135 34 35 497 33 501
b 136 35 500 497 33 501
b 137 519 55 56 54 53
b 138 522 66 67 65 68
b 139 500 497 33 39 501
b 140 526 84 83 82 81
b 141 530 98 99 100 97
b 142 139 540 138 135 136
b 143 540 138 133 135 136
b 144 138 133 134 135 136
b 145 538 129 130 131 132
b 146 542 147 148 146 145
b 147 571 260 261 275 262
b 148 260 261 276 275 262
b 149 261 276 275 277 262
b 150 554 193 194 191 192
b 151 558 208 209 207 210
b 152 562 224 225 226 223
b 153 224 301 225 226 223
b 154 567 244 245 334 339
b 155 244 245 335 334 339
b 156 245 335 338 334 339
b 157 335 338 333 334 339
b 158 338 333 334 336 339
b 159 196 555 197 352 351
b 160 555 197 352 351 198
b 161 197 352 359 351 198
b 162 553 188 189 187 190
b 163 352 359 351 362 198
b 164 518 50 51 52 49
b 165 552 184 183 185 186
b 166 176 550 177 180 179
b 167 550 177 180 179 178
b 168 177 180 179 181 178
b 169 547 165 166 167 168
b 170 545 158 157 159 160
b 171 551 180 179 181 182
b 172 236 565 237 288 287
b 173 565 237 288 287 238
b 174 237 288 289 287 238
b 175 570 256 255 257 258
b 176 569 254 253 251 252
b 177 544 155 153 154 156
b 178 539 133 134 135 136
b 179 517 46 45 47 48
b 180 133 134 135 136 129
b 181 134 135 136 129 130
b 182 135 136 129 130 131
b 183 136 129 130 131 132
b 184 129 130 131 132 125
b 185 173 364 174 198
b 186 520 59 57 58 60
b 187 559 213 212 211 214
b 188 213 212 375 211 214
b 189 509 15 14 13 16
b 190 541 142 143 141 144
b 191 66 67 70 65 68
b 192 67 70 71 65 68
b 193 142 143 146 141 144
b 194 143 147 146 141 144
b 195 264 572 265 319 317
b 196 572 265 319 317 266
b 197 265 319 317 321 266
b 198 319 317 321 266 318
b 199 317 321 266 318 316
b 200 564 232 233 231 234
b 201 536 123 122 124 121
b 202 561 220 221 219 222
b 203 123 122 421 124 121
b 204 122 421 124 416 121
b 205 535 118 120 119 117
b 206 276 275 277 280 262
b 207 275 277 280 262 279
b 208 516 42 43 44 41
b 209 288 289 232 287 238
b 210 531 104 101 102 103
b 211 529 94 95 93 96
b 212 543 150 149 151 152
b 213 94 95 427 93 96
b 214 95 427 93 96 431
b 215 533 109 111 110 112
b 216 534 115 116 113 114
b 217 566 240 241 239 242
b 218 240 241 341 239 242
b 219 241 341 342 239 242
b 220 341 342 239 242 337
b 221 342 239 242 337 219
b 222 239 242 337 219 331
b 223 242 337 219 350 331
b 224 532 107 106 105 108
b 225 220 221 358 219 350 222
b 226 289 232 233 287 234 238
b 227 497 33 38 39 501 37
b 228 548 172 169 170 171
b 229 378 380 379 214 385
b 230 384 209 382 203 210
b 231 408 174 404 170 171
b 232 345 305 346 347 351
b 233 490 99 484 65 100
b 234 368 221 358 222 203
b 235 298 233 294 223 234
b 236 295 225 226 234 238
b 237 306 301 310 223 258
b 238 313 318 316 247 311
b 239 322 321 323 318 324
b 240 321 323 266 318 316 324
b 241 323 266 318 316 324 325
b 242 266 318 316 324 334 325
b 243 180 179 181 178 184 182
b 244 179 181 178 184 182 183
b 245 181 178 184 182 183 185
b 246 178 184 182 183 185 141
b 247 277 280 262 283 278 279
b 248 280 262 283 278 279 282
b 249 262 283 278 287 279 282
b 250 33 38 39 501 37 68
b 251 459 29 458 27 26 28
b 252 29 458 27 26 28 449
b 253 232 233 294 231 287 234 238
b 254 233 294 231 287 223 234 238
b 255 294 231 287 286 223 234 238
b 256 231 278 287 286 223 234 238
b 257 369 207 370 211 354
b 258 359 371 351 362 198 360
b 259 23 22 478 24 470 21
b 260 364 374 174 373 198 360
b 261 374 174 404 373 198 360
b 262 98 99 484 100 97 102
b 263 506 503 502 11 12 501
b 264 503 502 11 10 12 501
b 265 441 61 439 59 58 449
b 266 61 439 59 58 449 96
b 267 46 477 45 47 48 469
b 268 188 189 400 414 187 190
b 269 208 209 382 207 370 210
b 270 42 43 477 44 487 41
b 271 15 14 498 13 16 489
b 272 380 379 389 214 385 206
b 273 19 20 478 17 18 489
b 274 333 334 325 327 336 339
b 275 337 219 350 331 336 339
b 276 458 27 26 28 25 60 449
b 277 27 26 28 25 470 60 449
b 278 26 28 25 467 470 60 449
b 279 28 25 24 467 470 60 449
b 280 502 11 10 12 9 501 40
b 281 11 10 12 9 501 40 498
b 282 10 12 9 501 40 498 495
b 283 12 9 501 40 498 495 16
b 284 184 182 183 185 437 141 186
b 285 182 183 185 437 145 141 186
b 286 183 185 437 145 141 186 423
b 287 185 437 145 141 186 423 444
b 288 437 145 141 186 423 424 444
b 289 38 39 501 40 487 37 68
b 290 39 501 40 487 492 37 68
b 291 209 382 207 370 375 203 210
b 292 382 207 370 375 222 203 210
b 293 221 358 219 350 222 354 203
b 294 358 219 350 339 222 354 203
b 295 318 316 324 334 325 247 311
b 296 324 334 325 326 247 311
b 297 440 110 438 114 446
b 298 461 460 50 54 464
b 299 394 390 393 395 192
b 300 403 404 373 194 169
b 301 412 417 406 411 166
b 302 415 416 117 121 410
b 303 409 417 406 171 410
b 304 425 427 93 422 89
b 305 434 157 435 161 429
b 306 450 448 81 85 452
b 307 454 83 456 87 452
b 308 475 474 22 478 18
b 309 480 481 43 477 47
b 310 445 186 153 429 444
b 311 494 9 495 44 13
b 312 433 439 92 96 431
b 313 428 419 424 429 444
b 314 420 419 190 161 429
b 315 391 392 387 390 395
b 316 392 387 390 395 372 194
b 317 402 194 401 190 169
b 318 472 473 51 47 469
b 319 493 9 40 44 492
b 320 457 25 56 60 455
b 321 386 385 362 387 390
b 322 485 483 14 18 489
b 323 285 283 286 257 282
b 324 283 278 287 286 257 279 282
b 325 361 347 385 351 362
b 326 304 301 310 225 305
b 327 301 310 225 226 305 223 258
b 328 310 225 226 305 223 258 346
b 329 466 25 467 21 56
b 330 329 327 328 331 336
b 331 465 21 56 52 464
b 332 314 247 248 311 251 252
b 333 442 432 430 435 159 160
b 334 421 124 422 416 119 121
b 335 124 93 422 416 119 121
b 336 193 395 194 191 192 401
b 337 163 162 430 164 161 167
b 338 212 370 375 211 347 214
b 339 249 328 247 248 250 253
b 340 256 255 252 257 282 258
b 341 255 251 252 257 279 282 258
b 342 99 484 65 100 97 102 103
b 343 484 65 100 97 102 103 144
b 344 174 404 373 198 360 170 171
b 345 162 430 164 435 161 166 167
b 346 379 389 203 210 214 385 206
b 347 404 373 198 360 194 169 170 171
b 348 373 372 198 360 194 169 170 171
b 349 207 370 375 211 222 354 203 210
b 350 219 350 331 336 339 222 354 203
b 351 225 226 305 223 234 238 258 346
b 352 370 375 211 222 354 347 203 210 214
b 353 211 222 346 354 347 203 210 214
b 354 78 82 77 74 79 80
b 355 86 88 85 87 90 452
b 356 107 106 111 105 103 108
b 357 115 119 116 113 114 446
b 358 254 250 253 251 252 258
b 359 155 151 153 154 159 156
b 360 158 157 435 154 159 160
b 361 150 146 149 151 152 154
b 362 165 411 161 166 167 168
b 363 172 169 170 171 121 410
b 364 91 89 87 90 92 431
b 365 55 56 455 54 464 53
b 366 75 71 76 73 74 79
b 367 453 57 58 455 54 53
b 368 118 120 416 119 117 114
b 369 106 111 110 105 102 103 108
b 370 147 148 146 151 145 141 144
b 371 20 478 24 16 17 18 489
b 372 70 72 71 69 65 74 68
b 373 189 400 414 187 401 419 190
b 374 371 351 362 387 372 198 360
b 375 400 414 187 191 192 401 419 190
b 376 474 22 478 21 17 18 52
b 377 427 93 422 89 90 96 431
b 378 481 43 477 44 13 47 48
b 379 483 14 13 48 17 18 489
b 380 334 325 326 327 247 311 336 339
b 381 326 327 328 247 248 311 336 339
b 382 327 328 247 248 311 331 336 339
b 383 328 247 248 250 253 311 331 336 339
b 384 247 248 250 253 311 251 252 331 336 339
b 385 250 253 311 251 252 258 331 336 339
b 386 253 311 251 252 257 258 331 336 339
b 387 311 251 252 257 279 258 331 336 339
b 388 251 252 257 279 282 258 331 336 339
b 389 389 203 210 214 385 390 393 206
b 390 148 146 151 152 145 141 97 144
b 391 146 149 151 152 145 141 154 97 144
b 392 72 71 69 76 65 74 37 68
b 393 71 69 76 65 73 74 79 37 68
b 394 69 76 65 100 73 74 79 37 68
b 395 305 223 234 238 258 346 347 351
b 396 22 478 24 467 470 21 17 18 52
b 397 14 498 495 13 48 16 17 18 489
b 398 478 24 467 470 21 16 17 18 52 489
b 399 432 430 164 435 159 160 438
b 400 473 51 47 48 469 17 52
b 401 439 59 57 58 449 92 96 431
b 402 59 57 58 60 449 455 92 96 431
b 403 157 435 161 153 154 159 429 160
b 404 278 287 286 257 279 282 223 234 238
b 405 286 257 279 282 223 234 238 258
b 406 430 164 435 161 166 167 159 160 438
b 407 9 501 40 498 495 44 13 492 16
b 408 257 279 282 223 234 238 258 331 336 339
b 409 223 234 238 258 331 336 339 346 347 351
b 410 331 336 339 222 346 354 347 203 351
b 411 222 346 354 347 203 210 214 351
b 412 347 203 210 214 385 351 362
b 413 203 210 214 385 351 362 390 393 206
b 414 385 351 362 387 390 393 206
b 415 351 362 387 390 393 372 198 360 206
b 416 387 390 393 395 372 198 360 194 206
b 417 390 393 395 372 198 360 194 192 206
b 418 393 395 372 198 360 194 191 192 206
b 419 395 372 198 360 194 191 192 206 401
b 420 460 50 54 464 53 49 456
b 421 448 116 81 85 112 446 452
b 422 120 422 416 119 117 89 116 114
b 423 25 24 467 470 21 56 60 449 455
b 424 50 51 469 52 54 464 53 49 456
b 425 414 187 191 192 401 419 190 423 424
b 426 187 191 192 206 401 419 190 423 424
b 427 57 58 60 449 455 54 53 92 96 431
b 428 149 151 152 145 141 186 153 154 97 144
b 429 417 406 411 171 166 167 168 410
b 430 406 411 169 170 171 166 167 168 410
b 431 411 190 169 170 171 161 166 167 168 410
b 432 43 477 44 13 487 492 47 48 41
b 433 477 45 44 13 487 492 47 48 469 41
b 434 164 435 161 166 167 159 160 438 113 168
b 435 372 198 360 194 191 192 206 401 169 170 171
b 436 194 191 192 206 401 190 169 170 171
b 437 191 192 206 401 419 190 169 170 171 423 424
b 438 419 190 169 170 171 161 423 424 429 444
b 439 151 152 145 141 186 153 154 159 156 97 144
b 440 152 145 141 186 153 154 159 156 97 101 144
b 441 109 111 110 105 160 438 112
b 442 84 83 82 49 80 456 81
b 443 83 82 79 49 80 456 81 87 452
b 444 82 77 74 79 49 80 456 81 87 452
b 445 104 100 73 101 102 103 108
b 446 88 53 456 85 87 90 92 452
b 447 93 422 416 119 89 90 96 121 431
b 448 422 416 119 117 89 116 90 96 114 121 431
b 449 416 119 117 89 116 90 96 114 121 410 431
b 450 76 65 100 73 74 79 37 41 68 80
b 451 111 110 105 160 438 102 103 108 112 446
b 452 110 105 160 438 102 103 108 112 114 446
b 453 105 156 160 438 101 102 103 108 112 114 446
b 454 119 117 89 116 90 96 113 114 121 410 431 446
b 455 117 89 116 90 96 113 114 121 168 410 431 446
b 456 501 40 498 495 44 13 487 492 16 37 68
b 457 77 73 74 79 49 80 456 81 87 108 452
b 458 51 47 48 469 17 52 54 464 53 49 456
b 459 435 161 166 167 153 154 159 429 160 438 113 168
b 460 45 44 13 487 492 47 48 469 41 49 80
b 461 190 169 170 171 161 166 167 423 424 429 444 168 410
b 462 169 170 171 161 166 167 423 424 429 444 121 168 410
b 463 498 495 44 13 487 492 48 16 17 18 489 37 68
b 464 24 467 470 21 56 60 449 455 16 17 18 52 489
b 465 21 56 60 449 455 16 17 18 52 464 489
b 466 56 60 449 455 16 17 18 52 54 464 489 53
b 467 60 449 455 16 17 18 52 54 464 489 53 92 96 431
b 468 145 141 186 153 154 159 423 424 444 156 97 101 144
b 469 186 153 154 159 423 424 429 444 156 97 101 144
b 470 89 116 85 87 90 92 96 113 114 121 168 410 431 446
b 471 44 13 487 492 47 48 469 16 17 18 489 37 41 49 68 80
b 472 47 48 469 16 17 18 52 54 464 489 53 37 41 49 68 80 456
b 473 16 17 18 52 54 464 489 53 37 41 49 68 80 456 92 96 431
b 474 53 37 41 49 68 80 456 85 87 90 92 96 431 452
b 475 116 81 85 87 90 92 96 112 113 114 121 168 410 431 446 452
b 476 65 100 73 74 79 37 41 68 80 97 102 103 144
b 477 100 73 74 79 37 41 68 80 97 101 102 103 108 144
b 478 161 166 167 153 154 159 423 424 429 444 160 438 113 121 168 410
b 479 153 154 159 423 424 429 444 156 160 438 97 101 113 121 144 168 410
b 480 156 160 438 97 101 102 103 108 112 113 114 121 144 168 410 446
b 481 73 74 79 37 41 49 68 80 456 81 87 97 101 102 103 108 144 452
b 482 37 41 49 68 80 456 81 85 87 90 92 96 97 101 102 103 108 144 431 452
b 483 81 85 87 90 92 96 97 101 102 103 108 112 113 114 121 144 168 410 431 446 452
1 3
3 5
5 6
6 98
98 97
98 99
97 96
96 95
99 100
100 238
238 295
295 242
295 296
242 241
296 380
380 381
381 382
382 383
383 384
384 385
385 386
386 387
387 388
388 408
408 405
408 409
405 404
409 395
388 341
409 410
404 324
404 256
395 351
410 350
410 411
411 353
353 352
352 349
351 328
350 294
256 255
255 254
254 253
349 292
292 291
328 327
294 293
383 339
291 269
253 226
384 332
293 225
385 358
341 340
380 274
324 249
249 248
248 247
350 275
241 240
411 412
412 413
413 389
413 414
389 346
414 415
415 416
416 417
417 418
418 419
419 435
435 436
436 437
437 426
426 425
435 348
437 438
438 461
461 462
462 478
478 479
478 459
479 469
469 468
479 480
480 483
483 475
483 482
482 481
475 470
482 474
481 477
477 476
470 455
455 454
480 453
468 440
481 457
474 473
473 472
472 471
473 467
471 463
467 466
440 439
454 449
471 460
472 458
466 465
449 448
465 464
461 431
459 434
476 450
453 452
457 444
463 456
439 428
460 433
464 398
452 451
467 427
463 397
458 424
448 447
464 423
431 430
434 406
450 394
444 443
456 407
428 391
433 432
398 396
427 402
394 393
348 347
425 375
459 403
474 446
448 422
430 429
391 390
402 401
393 392
390 370
392 372
415 374
468 288
288 287
287 286
286 285
285 284
475 421
477 445
476 343
343 342
458 400
456 290
290 289
398 371
451 369
451 441
397 379
424 420
447 377
423 279
406 399
279 278
278 277
277 276
406 345
443 442
407 283
283 282
282 281
281 280
432 378
396 376
347 344
375 373
371 273
369 356
446 355
399 333
284 246
276 252
401 266
345 337
422 368
342 262
374 258
280 264
403 360
344 261
289 250
373 268
246 245
252 251
266 265
264 263
261 260
250 227
245 244
244 243
346 272
416 316
419 336
462 363
470 364
454 357
466 365
439 359
431 362
444 354
433 267
427 367
397 271
352 338
447 335
335 334
391 361
432 270
396 259
393 366
370 194
372 111
372 192
284 165
421 306
445 210
342 233
400 318
291 230
289 114
327 153
441 215
327 326
379 322
327 237
420 298
377 304
377 214
293 234
339 126
277 119
442 140
269 151
226 209
281 130
378 309
376 308
344 231
356 224
355 109
337 108
368 205
262 141
258 163
274 158
360 170
268 162
251 132
265 125
263 124
227 139
340 175
225 202
243 168
243 171
254 235
272 229
316 315
403 305
336 150
363 228
364 110
365 137
358 176
273 133
247 207
359 177
362 169
429 301
354 112
267 179
271 189
338 188
275 223
429 303
334 204
401 312
361 212
270 208
240 199
259 118
240 239
366 113
370 146
194 193
192 191
253 200
412 325
153 152
214 213
209 174
163 161
158 157
132 131
125 117
414 321
124 123
139 136
168 167
207 206
206 149
188 187
223 222
204 203
199 198
193 190
191 138
213 211
174 173
161 160
417 299
157 156
131 129
117 116
123 45
136 135
149 148
167 166
222 221
203 201
198 197
173 172
160 159
156 155
129 128
116 115
135 134
148 147
221 220
197 196
155 154
128 127
220 219
196 195
219 218
218 217
436 317
438 313
438 314
469 310
395 232
357 216
324 323
351 236
449 302
465 331
452 297
424 164
382 330
423 320
423 329
349 257
443 307
407 319
407 311
402 186
347 300
286 73
292 62
343 80
371 79
371 83
293 50
279 77
345 72
283 85
226 87
332 103
333 74
274 106
263 65
260 58
260 185
227 84
316 64
316 66
367 75
233 82
230 63
237 93
237 101
234 59
231 69
235 91
229 60
346 28
387 92
223 49
239 104
28 12
12 10
429 71
166 24
221 46
172 34
159 21
236 44
115 36
147 38
154 35
134 19
257 57
44 43
45 29
45 41
57 56
43 42
56 55
42 33
55 54
33 32
54 53
53 52
32 31
52 30
52 51
31 14
14 11
426 27
27 26
26 25
25 23
23 22
22 15
15 13
425 70
255 89
127 18
154 37
341 88
232 47
324 90
471 81
460 76
95 40
220 107
95 94
433 78
352 61
430 68
195 39
328 102
294 86
383 105
375 67
185 48
185 2
92 9
9 8
8 7
7 4
48 121
121 120
121 122
122 184
184 145
184 183
183 182
182 181
181 180
180 144
180 178
144 143
143 142
120 16
142 20
143 17
END

EOF
